100
32 0
4 0
33 1
0 3
7 0
15 4
19 3
18 4
5 0
13 1
37 3
3 4
5 2
10 3
16 4
18 0
6 4
2 4
7 4
42 3
22 0
29 0
30 3
12 4
42 2
1 4
27 2
32 3
43 0
38 2
36 0
30 0
13 4
28 2
11 1
33 4
19 4
24 3
34 0
9 4
23 2
28 1
5 1
25 4
10 0
11 0
37 4
28 4
31 4
1 1
37 1
1 0
40 3
29 4
38 4
1 3
34 4
23 0
29 2
18 1
39 3
18 3
41 4
4 3
41 1
38 0
0 4
11 3
43 3
20 0
16 3
21 4
2 0
27 3
31 0
42 0
22 4
39 0
31 1
6 3
38 1
0 1
15 0
25 0
4 2
23 1
16 2
20 4
40 2
20 3
6 0
0 0
24 4
27 0
33 3
41 3
9 1
3 0
7 3
13 0

